!Title
!Onetep calculation from Materials Studio for SiH3OH
!tolerances=-f fine_bl


TASK GEOMETRYOPTIMIZATION
GRD_FORMAT T
WRITE_FORCES TRUE
CUTOFF_ENERGY 800.0000000000   eV

CHARGE 0        
NGWF_THRESHOLD_ORIG 0.0000018375
ELEC_ENERGY_TOL 0.001     eV
MAXIT_NGWF_CG 100      
MINIT_LNV 10       
MAXIT_LNV 10       
MAXIT_PEN 3        
PEN_PARAM 4        

MAXIT_HOTELLING 100      
XC_FUNCTIONAL PBE
SPINPOLARIZED FALSE
CONSTANT_EFIELD 0.0000000000     0.0000000000     0.0000000000     
OUTPUT_DETAIL VERBOSE
GEOM_METHOD CARTESIAN
GEOM_MAX_ITER 100      
GEOM_ENERGY_TOL 0.0000100000     eV
GEOM_FORCE_TOL 0.0300000000     "eV/ang"
GEOM_DISP_TOL 0.0010000000     ang
DO_PROPERTIES TRUE
WRITE_DENSITY_PLOT TRUE
HOMO_PLOT -1       
LUMO_PLOT -1       
DOS_SMEAR 0.1000000000     eV
NUM_EIGENVALUES 6        
POPN_CALCULATE TRUE
POPN_BOND_CUTOFF 3.0000000000     ang
GEOM_CONTINUATION T

%block lattice_cart
94.486315649999995      0.000000000000000       0.000000000000000       
0.000000000000000       94.486315649999995      0.000000000000000       
0.000000000000000       0.000000000000000       94.486315649999995      
%endblock lattice_cart

%block positions_abs
Si1 46.07533116078049      47.28086987597119      46.05487245403928      
H1 44.59597781391157      47.25182478254038      48.45068637092381      
H1 44.24728551463682      46.95744321750124      43.93783096284850      
H1 47.37610537107091      49.74089669297136      45.79250285274235      
O1 48.26970025269922      45.06864287039461      46.03079734081166      
H1 47.64724330246015      43.34383297273012      46.19550588625273      
%endblock positions_abs


%block species
Si1 Si 14 4 9.23609683290000
H1 H 1 1 9.04712420160000
O1 O 8 4 9.23609683290000
%endblock species

%block species_atomic_set
Si1 SOLVE
H1 SOLVE
O1 SOLVE
%endblock species_atomic_set

%block species_pot
Si1 Si_00PBE_OP.recpot
H1 H_00PBE_OP.recpot
O1 O_00PBE_OP.recpot
%endblock species_pot


%block species_constraints
Si1 NONE
H1 NONE
O1 NONE
%endblock species_constraints
